125
[12,13,14,15,16,17,18,19,20,21,22,23,24,25,26,27,28,29,30,31,32,33,34,35,36,37,38,39,40,41,42,43,44,45,46,47,48,49,50,51,52,53,54,55,56,57,58,59,60,61,62,63,64,65,66,67,68,69,70,71,72,73,74,75,76,77,78,79,80,81,82,83,84,85,86,87,88,89,90,91,92,93,94,95,96,97,98,99,100]
[9,14,9,12,9,12,3,9,11,9,9,11,14,8,11,7,10,11,5,10,11,10,7,8,11,10,6,4,10,9,15,4,6,10,9,9,6,14,8,6,12,6,7,9,8,9,7,8,7,6,9,6,8,8,10,12,7,6,5,11,10,4,6,4,5,9,5,10,10,7,7,13,6,9,12,11,6,13,6,8,6,9,6,6,3,6,9,9,8]
